*SPEF "ieee 1481-1999"
*DESIGN "clb_3bit"
*DATE "00:47:44 Friday August 08, 2025"
*VENDOR "The OpenROAD Project"
*PROGRAM "OpenROAD"
*VERSION "edf00dff99f6c40d67a30c0e22a8191c5d2ed9d6"
*DESIGN_FLOW "NAME_SCOPE LOCAL" "PIN_CAP NONE"
*DIVIDER /
*DELIMITER :
*BUS_DELIMITER []
*T_UNIT 1 NS
*C_UNIT 1 PF
*R_UNIT 1 OHM
*L_UNIT 1 HENRY

*NAME_MAP
*3 clb_clk_in
*4 clb_in[0]
*5 clb_in[1]
*6 clb_in[2]
*7 clb_mode_seq
*8 clb_out
*9 lut_data_in[0]
*10 lut_data_in[1]
*11 lut_data_in[2]
*12 lut_data_in[3]
*13 lut_data_in[4]
*14 lut_data_in[5]
*15 lut_data_in[6]
*16 lut_data_in[7]
*17 _0_
*18 _1_
*19 ff_output_internal
*20 lut_output_internal
*21 net1
*22 net10
*23 net11
*24 net12
*25 net13
*26 net2
*27 net3
*28 net4
*29 net5
*30 net6
*31 net7
*32 net8
*33 net9
*34 FILLER_0_30
*35 FILLER_0_42
*36 FILLER_0_8
*37 FILLER_1_34
*38 FILLER_2_34
*39 FILLER_2_37
*40 FILLER_3_37
*41 FILLER_4_31
*42 FILLER_4_37
*43 FILLER_4_8
*44 FILLER_5_22
*45 FILLER_5_30
*46 FILLER_5_36
*47 PHY_EDGE_ROW_0_Left_6
*48 PHY_EDGE_ROW_0_Right_0
*49 PHY_EDGE_ROW_1_Left_7
*50 PHY_EDGE_ROW_1_Right_1
*51 PHY_EDGE_ROW_2_Left_8
*52 PHY_EDGE_ROW_2_Right_2
*53 PHY_EDGE_ROW_3_Left_9
*54 PHY_EDGE_ROW_3_Right_3
*55 PHY_EDGE_ROW_4_Left_10
*56 PHY_EDGE_ROW_4_Right_4
*57 PHY_EDGE_ROW_5_Left_11
*58 PHY_EDGE_ROW_5_Right_5
*59 TAP_TAPCELL_ROW_0_12
*60 TAP_TAPCELL_ROW_2_13
*61 TAP_TAPCELL_ROW_4_14
*62 TAP_TAPCELL_ROW_5_15
*63 _2_
*64 _3_
*65 _4_
*66 _5_
*67 _6_
*68 input1
*69 input10
*70 input11
*71 input12
*72 input2
*73 input3
*74 input4
*75 input5
*76 input6
*77 input7
*78 input8
*79 input9
*80 output13

*PORTS
clb_clk_in I
clb_in[0] I
clb_in[1] I
clb_in[2] I
clb_mode_seq I
clb_out O
lut_data_in[0] I
lut_data_in[1] I
lut_data_in[2] I
lut_data_in[3] I
lut_data_in[4] I
lut_data_in[5] I
lut_data_in[6] I
lut_data_in[7] I

*D_NET *3 0.00254217
*CONN
*P clb_clk_in I
*I *67:CLK I *D gf180mcu_fd_sc_mcu7t5v0__dffq_1
*CAP
1 clb_clk_in 0.000749211
2 *67:CLK 0.000749211
3 *67:CLK clb_out 0.000781809
4 *67:CLK *68:I 0.00019661
5 *67:CLK *80:I 0
6 *67:CLK *21:6 6.53324e-05
*RES
1 clb_clk_in *67:CLK 15.604 
*END

*D_NET *4 0.00145544
*CONN
*P clb_in[0] I
*I *68:I I *D gf180mcu_fd_sc_mcu7t5v0__clkbuf_1
*CAP
1 clb_in[0] 0.000315015
2 *68:I 0.000315015
3 *68:I *70:I 0.000628801
4 *67:CLK *68:I 0.00019661
*RES
1 clb_in[0] *68:I 12.692 
*END

*D_NET *5 0.00627893
*CONN
*P clb_in[1] I
*I *72:I I *D gf180mcu_fd_sc_mcu7t5v0__clkbuf_1
*CAP
1 clb_in[1] 0.00159147
2 *72:I 0.00159147
3 *72:I *63:I1 0.000655618
4 *72:I *63:I3 0
5 *72:I *64:I1 0.000131207
6 *72:I *64:I3 3.57634e-06
7 *72:I *64:S1 8.05525e-05
8 *72:I *65:I0 0.000699131
9 *72:I *65:S 0.000431436
10 *72:I *66:I0 1.67008e-05
11 *72:I *66:S 0
12 *72:I *73:I 0.000165007
13 *72:I *78:I 0.000145303
14 *72:I *26:12 0.000767469
*RES
1 clb_in[1] *72:I 33.34 
*END

*D_NET *6 0.00624376
*CONN
*P clb_in[2] I
*I *73:I I *D gf180mcu_fd_sc_mcu7t5v0__clkbuf_1
*CAP
1 clb_in[2] 0.00138642
2 *73:I 0.00138642
3 *73:I *63:I0 0.000113016
4 *73:I *63:I3 0.00124988
5 *73:I *64:I0 0.000113027
6 *73:I *64:I1 0.000419276
7 *73:I *65:S 2.14894e-05
8 *73:I *71:I 0.000596406
9 *73:I *75:I 1.85722e-05
10 *73:I *78:I 0.000748316
11 *73:I *79:I 2.593e-05
12 *72:I *73:I 0.000165007
*RES
1 clb_in[2] *73:I 23.612 
*END

*D_NET *7 0.000887022
*CONN
*P clb_mode_seq I
*I *74:I I *D gf180mcu_fd_sc_mcu7t5v0__clkbuf_1
*CAP
1 clb_mode_seq 0.000403482
2 *74:I 0.000403482
3 *74:I *63:I1 2.38656e-05
4 *74:I *69:I 5.61917e-05
*RES
1 clb_mode_seq *74:I 12.276 
*END

*D_NET *8 0.00200227
*CONN
*P clb_out O
*I *80:Z O *D gf180mcu_fd_sc_mcu7t5v0__clkbuf_3
*CAP
1 clb_out 0.000419294
2 *80:Z 0.000419294
3 clb_out *66:I1 0
4 clb_out *70:I 6.49606e-05
5 clb_out *77:I 6.0623e-05
6 clb_out *80:I 0
7 clb_out *21:6 0.000256285
8 *67:CLK clb_out 0.000781809
*RES
1 *80:Z clb_out 13.732 
*END

*D_NET *9 0.000625667
*CONN
*P lut_data_in[0] I
*I *75:I I *D gf180mcu_fd_sc_mcu7t5v0__clkbuf_1
*CAP
1 lut_data_in[0] 0.000270774
2 *75:I 0.000270774
3 *75:I *64:I0 4.67771e-06
4 *75:I *71:I 4.67771e-06
5 *75:I *79:I 5.61917e-05
6 *73:I *75:I 1.85722e-05
*RES
1 lut_data_in[0] *75:I 11.444 
*END

*D_NET *10 0.000824789
*CONN
*P lut_data_in[1] I
*I *76:I I *D gf180mcu_fd_sc_mcu7t5v0__clkbuf_1
*CAP
1 lut_data_in[1] 0.000319702
2 *76:I 0.000319702
3 *76:I *64:I1 8.39223e-05
4 *76:I *69:I 5.07314e-05
5 *76:I *79:I 5.07314e-05
*RES
1 lut_data_in[1] *76:I 11.86 
*END

*D_NET *11 0.00249144
*CONN
*P lut_data_in[2] I
*I *77:I I *D gf180mcu_fd_sc_mcu7t5v0__clkbuf_1
*CAP
1 lut_data_in[2] 0.000552619
2 *77:I 0.000552619
3 *77:I *63:I2 0.000232985
4 *77:I *64:I2 0.000190584
5 *77:I *64:S0 0.000580926
6 *77:I *78:I 5.05188e-05
7 *77:I *20:10 5.37778e-05
8 *77:I *21:6 0.000216786
9 clb_out *77:I 6.0623e-05
*RES
1 lut_data_in[2] *77:I 14.98 
*END

*D_NET *12 0.00418927
*CONN
*P lut_data_in[3] I
*I *78:I I *D gf180mcu_fd_sc_mcu7t5v0__clkbuf_1
*CAP
1 lut_data_in[3] 0.000877412
2 *78:I 0.000877412
3 *78:I *63:I2 7.13956e-05
4 *78:I *63:I3 9.01468e-05
5 *78:I *64:I3 1.76416e-05
6 *78:I *64:S1 0.000320012
7 *78:I *65:I0 0.00075769
8 *78:I *65:I1 5.12485e-05
9 *78:I *71:I 0.000182172
10 *72:I *78:I 0.000145303
11 *73:I *78:I 0.000748316
12 *77:I *78:I 5.05188e-05
*RES
1 lut_data_in[3] *78:I 27.412 
*END

*D_NET *13 0.000717363
*CONN
*P lut_data_in[4] I
*I *79:I I *D gf180mcu_fd_sc_mcu7t5v0__clkbuf_1
*CAP
1 lut_data_in[4] 0.000280322
2 *79:I 0.000280322
3 *79:I *63:I0 2.38656e-05
4 *73:I *79:I 2.593e-05
5 *75:I *79:I 5.61917e-05
6 *76:I *79:I 5.07314e-05
*RES
1 lut_data_in[4] *79:I 11.652 
*END

*D_NET *14 0.000817432
*CONN
*P lut_data_in[5] I
*I *69:I I *D gf180mcu_fd_sc_mcu7t5v0__clkbuf_1
*CAP
1 lut_data_in[5] 0.000349638
2 *69:I 0.000349638
3 *69:I *63:I1 1.12327e-05
4 *74:I *69:I 5.61917e-05
5 *76:I *69:I 5.07314e-05
*RES
1 lut_data_in[5] *69:I 11.86 
*END

*D_NET *15 0.00238193
*CONN
*P lut_data_in[6] I
*I *70:I I *D gf180mcu_fd_sc_mcu7t5v0__clkbuf_1
*CAP
1 lut_data_in[6] 0.000600648
2 *70:I 0.000600648
3 *70:I *63:I1 0.000113027
4 *70:I *63:I2 0.000193782
5 *70:I *66:S 0.000151966
6 *70:I *26:12 2.80993e-05
7 clb_out *70:I 6.49606e-05
8 *68:I *70:I 0.000628801
*RES
1 lut_data_in[6] *70:I 15.604 
*END

*D_NET *16 0.00387719
*CONN
*P lut_data_in[7] I
*I *71:I I *D gf180mcu_fd_sc_mcu7t5v0__clkbuf_1
*CAP
1 lut_data_in[7] 0.00121086
2 *71:I 0.00121086
3 *71:I *63:I3 0
4 *71:I *64:I0 0.000222929
5 *71:I *64:I3 0.000449282
6 *73:I *71:I 0.000596406
7 *75:I *71:I 4.67771e-06
8 *78:I *71:I 0.000182172
*RES
1 lut_data_in[7] *71:I 19.556 
*END

*D_NET *17 0.000922479
*CONN
*I *65:I1 I *D gf180mcu_fd_sc_mcu7t5v0__mux2_2
*I *63:Z O *D gf180mcu_fd_sc_mcu7t5v0__mux4_1
*CAP
1 *65:I1 0.000354576
2 *63:Z 0.000354576
3 *65:I1 *64:S1 7.27976e-05
4 *65:I1 *66:I1 0
5 *65:I1 *20:10 8.92811e-05
6 *78:I *65:I1 5.12485e-05
*RES
1 *63:Z *65:I1 11.704 
*END

*D_NET *18 0.00240722
*CONN
*I *65:I0 I *D gf180mcu_fd_sc_mcu7t5v0__mux2_2
*I *64:Z O *D gf180mcu_fd_sc_mcu7t5v0__mux4_1
*CAP
1 *65:I0 0.000184031
2 *64:Z 0.000184031
3 *65:I0 *64:I3 0.000582338
4 *72:I *65:I0 0.000699131
5 *78:I *65:I0 0.00075769
*RES
1 *64:Z *65:I0 21.536 
*END

*D_NET *19 0.000992086
*CONN
*I *66:I0 I *D gf180mcu_fd_sc_mcu7t5v0__mux2_2
*I *67:Q O *D gf180mcu_fd_sc_mcu7t5v0__dffq_1
*CAP
1 *66:I0 0.000381658
2 *67:Q 0.000381658
3 *66:I0 *63:I1 0.000212069
4 *66:I0 *65:S 0
5 *72:I *66:I0 1.67008e-05
*RES
1 *67:Q *66:I0 12.12 
*END

*D_NET *20 0.00238044
*CONN
*I *66:I1 I *D gf180mcu_fd_sc_mcu7t5v0__mux2_2
*I *67:D I *D gf180mcu_fd_sc_mcu7t5v0__dffq_1
*I *65:Z O *D gf180mcu_fd_sc_mcu7t5v0__mux2_2
*CAP
1 *66:I1 0.000285744
2 *67:D 0
3 *65:Z 0.000544322
4 *20:10 0.000830066
5 *66:I1 *63:I2 0.000271894
6 *66:I1 *21:6 0
7 *20:10 *63:I2 0
8 *20:10 *63:I3 5.13977e-05
9 *20:10 *64:S0 0.000140659
10 *20:10 *64:S1 0
11 *20:10 *21:6 0.0001133
12 *20:10 *26:12 0
13 clb_out *66:I1 0
14 *65:I1 *66:I1 0
15 *65:I1 *20:10 8.92811e-05
16 *77:I *20:10 5.37778e-05
*RES
1 *65:Z *20:10 9.18 
2 *20:10 *67:D 4.5 
3 *20:10 *66:I1 7.412 
*END

*D_NET *21 0.00202261
*CONN
*I *63:S0 I *D gf180mcu_fd_sc_mcu7t5v0__mux4_1
*I *64:S0 I *D gf180mcu_fd_sc_mcu7t5v0__mux4_1
*I *68:Z O *D gf180mcu_fd_sc_mcu7t5v0__clkbuf_1
*CAP
1 *63:S0 0
2 *64:S0 7.85945e-05
3 *68:Z 0.000246067
4 *21:6 0.000324662
5 clb_out *21:6 0.000256285
6 *66:I1 *21:6 0
7 *67:CLK *21:6 6.53324e-05
8 *77:I *64:S0 0.000580926
9 *77:I *21:6 0.000216786
10 *20:10 *64:S0 0.000140659
11 *20:10 *21:6 0.0001133
*RES
1 *68:Z *21:6 7.1 
2 *21:6 *64:S0 6.06 
3 *21:6 *63:S0 4.5 
*END

*D_NET *22 0.00348071
*CONN
*I *63:I1 I *D gf180mcu_fd_sc_mcu7t5v0__mux4_1
*I *69:Z O *D gf180mcu_fd_sc_mcu7t5v0__clkbuf_1
*CAP
1 *63:I1 0.000946639
2 *69:Z 0.000946639
3 *63:I1 *63:I2 5.28859e-05
4 *63:I1 *64:I1 4.30651e-05
5 *63:I1 *65:S 0
6 *63:I1 *66:S 0.00026913
7 *63:I1 *26:12 0.000206537
8 *66:I0 *63:I1 0.000212069
9 *69:I *63:I1 1.12327e-05
10 *70:I *63:I1 0.000113027
11 *72:I *63:I1 0.000655618
12 *74:I *63:I1 2.38656e-05
*RES
1 *69:Z *63:I1 26.528 
*END

*D_NET *23 0.00347649
*CONN
*I *63:I2 I *D gf180mcu_fd_sc_mcu7t5v0__mux4_1
*I *70:Z O *D gf180mcu_fd_sc_mcu7t5v0__clkbuf_1
*CAP
1 *63:I2 0.000621057
2 *70:Z 0.000621057
3 *63:I2 *63:I3 0.000534088
4 *63:I2 *66:S 1.57479e-05
5 *63:I2 *80:I 5.45754e-05
6 *63:I2 *26:12 0.000807021
7 *63:I1 *63:I2 5.28859e-05
8 *66:I1 *63:I2 0.000271894
9 *70:I *63:I2 0.000193782
10 *77:I *63:I2 0.000232985
11 *78:I *63:I2 7.13956e-05
12 *20:10 *63:I2 0
*RES
1 *70:Z *63:I2 25.592 
*END

*D_NET *24 0.00530325
*CONN
*I *63:I3 I *D gf180mcu_fd_sc_mcu7t5v0__mux4_1
*I *71:Z O *D gf180mcu_fd_sc_mcu7t5v0__clkbuf_1
*CAP
1 *63:I3 0.00088885
2 *71:Z 0.00088885
3 *63:I3 *63:I0 0.000469568
4 *63:I3 *64:I1 0.00107618
5 *63:I3 *64:I3 0
6 *63:I3 *64:S1 2.73715e-06
7 *63:I3 *65:S 5.15578e-05
8 *63:I3 *26:12 0
9 *63:I2 *63:I3 0.000534088
10 *71:I *63:I3 0
11 *72:I *63:I3 0
12 *73:I *63:I3 0.00124988
13 *78:I *63:I3 9.01468e-05
14 *20:10 *63:I3 5.13977e-05
*RES
1 *71:Z *63:I3 27.256 
*END

*D_NET *25 0.000353004
*CONN
*I *80:I I *D gf180mcu_fd_sc_mcu7t5v0__clkbuf_3
*I *66:Z O *D gf180mcu_fd_sc_mcu7t5v0__mux2_2
*CAP
1 *80:I 0.000149214
2 *66:Z 0.000149214
3 clb_out *80:I 0
4 *63:I2 *80:I 5.45754e-05
5 *67:CLK *80:I 0
*RES
1 *66:Z *80:I 10.144 
*END

*D_NET *26 0.00316059
*CONN
*I *63:S1 I *D gf180mcu_fd_sc_mcu7t5v0__mux4_1
*I *64:S1 I *D gf180mcu_fd_sc_mcu7t5v0__mux4_1
*I *72:Z O *D gf180mcu_fd_sc_mcu7t5v0__clkbuf_1
*CAP
1 *63:S1 0
2 *64:S1 0.000172414
3 *72:Z 0.000265266
4 *26:12 0.00043768
5 *63:I1 *26:12 0.000206537
6 *63:I2 *26:12 0.000807021
7 *63:I3 *64:S1 2.73715e-06
8 *63:I3 *26:12 0
9 *65:I1 *64:S1 7.27976e-05
10 *70:I *26:12 2.80993e-05
11 *72:I *64:S1 8.05525e-05
12 *72:I *26:12 0.000767469
13 *78:I *64:S1 0.000320012
14 *20:10 *64:S1 0
15 *20:10 *26:12 0
*RES
1 *72:Z *26:12 17.868 
2 *26:12 *64:S1 6.372 
3 *26:12 *63:S1 4.5 
*END

*D_NET *27 0.0027096
*CONN
*I *65:S I *D gf180mcu_fd_sc_mcu7t5v0__mux2_2
*I *73:Z O *D gf180mcu_fd_sc_mcu7t5v0__clkbuf_1
*CAP
1 *65:S 0.000885762
2 *73:Z 0.000885762
3 *65:S *64:I1 0.000194522
4 *65:S *64:I3 0.000239072
5 *63:I1 *65:S 0
6 *63:I3 *65:S 5.15578e-05
7 *66:I0 *65:S 0
8 *72:I *65:S 0.000431436
9 *73:I *65:S 2.14894e-05
*RES
1 *73:Z *65:S 16.384 
*END

*D_NET *28 0.00195653
*CONN
*I *66:S I *D gf180mcu_fd_sc_mcu7t5v0__mux2_2
*I *74:Z O *D gf180mcu_fd_sc_mcu7t5v0__clkbuf_1
*CAP
1 *66:S 0.000759842
2 *74:Z 0.000759842
3 *63:I1 *66:S 0.00026913
4 *63:I2 *66:S 1.57479e-05
5 *70:I *66:S 0.000151966
6 *72:I *66:S 0
*RES
1 *74:Z *66:S 23.616 
*END

*D_NET *29 0.000899065
*CONN
*I *64:I0 I *D gf180mcu_fd_sc_mcu7t5v0__mux4_1
*I *75:Z O *D gf180mcu_fd_sc_mcu7t5v0__clkbuf_1
*CAP
1 *64:I0 0.000279216
2 *75:Z 0.000279216
3 *64:I0 *63:I0 0
4 *71:I *64:I0 0.000222929
5 *73:I *64:I0 0.000113027
6 *75:I *64:I0 4.67771e-06
*RES
1 *75:Z *64:I0 20.08 
*END

*D_NET *30 0.00338953
*CONN
*I *64:I1 I *D gf180mcu_fd_sc_mcu7t5v0__mux4_1
*I *76:Z O *D gf180mcu_fd_sc_mcu7t5v0__clkbuf_1
*CAP
1 *64:I1 0.000695987
2 *76:Z 0.000695987
3 *64:I1 *63:I0 4.93913e-05
4 *63:I1 *64:I1 4.30651e-05
5 *63:I3 *64:I1 0.00107618
6 *65:S *64:I1 0.000194522
7 *72:I *64:I1 0.000131207
8 *73:I *64:I1 0.000419276
9 *76:I *64:I1 8.39223e-05
*RES
1 *76:Z *64:I1 24.76 
*END

*D_NET *31 0.000574003
*CONN
*I *64:I2 I *D gf180mcu_fd_sc_mcu7t5v0__mux4_1
*I *77:Z O *D gf180mcu_fd_sc_mcu7t5v0__clkbuf_1
*CAP
1 *64:I2 0.000191709
2 *77:Z 0.000191709
3 *77:I *64:I2 0.000190584
*RES
1 *77:Z *64:I2 10.56 
*END

*D_NET *32 0.00224769
*CONN
*I *64:I3 I *D gf180mcu_fd_sc_mcu7t5v0__mux4_1
*I *78:Z O *D gf180mcu_fd_sc_mcu7t5v0__clkbuf_1
*CAP
1 *64:I3 0.000477889
2 *78:Z 0.000477889
3 *63:I3 *64:I3 0
4 *65:I0 *64:I3 0.000582338
5 *65:S *64:I3 0.000239072
6 *71:I *64:I3 0.000449282
7 *72:I *64:I3 3.57634e-06
8 *78:I *64:I3 1.76416e-05
*RES
1 *78:Z *64:I3 22.784 
*END

*D_NET *33 0.00114076
*CONN
*I *63:I0 I *D gf180mcu_fd_sc_mcu7t5v0__mux4_1
*I *79:Z O *D gf180mcu_fd_sc_mcu7t5v0__clkbuf_1
*CAP
1 *63:I0 0.000242459
2 *79:Z 0.000242459
3 *63:I3 *63:I0 0.000469568
4 *64:I0 *63:I0 0
5 *64:I1 *63:I0 4.93913e-05
6 *73:I *63:I0 0.000113016
7 *79:I *63:I0 2.38656e-05
*RES
1 *79:Z *63:I0 20.08 
*END
