*SPEF "ieee 1481-1999"
*DESIGN "clb_3bit"
*DATE "00:47:44 Friday August 08, 2025"
*VENDOR "The OpenROAD Project"
*PROGRAM "OpenROAD"
*VERSION "edf00dff99f6c40d67a30c0e22a8191c5d2ed9d6"
*DESIGN_FLOW "NAME_SCOPE LOCAL" "PIN_CAP NONE"
*DIVIDER /
*DELIMITER :
*BUS_DELIMITER []
*T_UNIT 1 NS
*C_UNIT 1 PF
*R_UNIT 1 OHM
*L_UNIT 1 HENRY

*NAME_MAP
*3 clb_clk_in
*4 clb_in[0]
*5 clb_in[1]
*6 clb_in[2]
*7 clb_mode_seq
*8 clb_out
*9 lut_data_in[0]
*10 lut_data_in[1]
*11 lut_data_in[2]
*12 lut_data_in[3]
*13 lut_data_in[4]
*14 lut_data_in[5]
*15 lut_data_in[6]
*16 lut_data_in[7]
*17 _0_
*18 _1_
*19 ff_output_internal
*20 lut_output_internal
*21 net1
*22 net10
*23 net11
*24 net12
*25 net13
*26 net2
*27 net3
*28 net4
*29 net5
*30 net6
*31 net7
*32 net8
*33 net9
*34 FILLER_0_30
*35 FILLER_0_42
*36 FILLER_0_8
*37 FILLER_1_34
*38 FILLER_2_34
*39 FILLER_2_37
*40 FILLER_3_37
*41 FILLER_4_31
*42 FILLER_4_37
*43 FILLER_4_8
*44 FILLER_5_22
*45 FILLER_5_30
*46 FILLER_5_36
*47 PHY_EDGE_ROW_0_Left_6
*48 PHY_EDGE_ROW_0_Right_0
*49 PHY_EDGE_ROW_1_Left_7
*50 PHY_EDGE_ROW_1_Right_1
*51 PHY_EDGE_ROW_2_Left_8
*52 PHY_EDGE_ROW_2_Right_2
*53 PHY_EDGE_ROW_3_Left_9
*54 PHY_EDGE_ROW_3_Right_3
*55 PHY_EDGE_ROW_4_Left_10
*56 PHY_EDGE_ROW_4_Right_4
*57 PHY_EDGE_ROW_5_Left_11
*58 PHY_EDGE_ROW_5_Right_5
*59 TAP_TAPCELL_ROW_0_12
*60 TAP_TAPCELL_ROW_2_13
*61 TAP_TAPCELL_ROW_4_14
*62 TAP_TAPCELL_ROW_5_15
*63 _2_
*64 _3_
*65 _4_
*66 _5_
*67 _6_
*68 input1
*69 input10
*70 input11
*71 input12
*72 input2
*73 input3
*74 input4
*75 input5
*76 input6
*77 input7
*78 input8
*79 input9
*80 output13

*PORTS
clb_clk_in I
clb_in[0] I
clb_in[1] I
clb_in[2] I
clb_mode_seq I
clb_out O
lut_data_in[0] I
lut_data_in[1] I
lut_data_in[2] I
lut_data_in[3] I
lut_data_in[4] I
lut_data_in[5] I
lut_data_in[6] I
lut_data_in[7] I

*D_NET *3 0.00227239
*CONN
*P clb_clk_in I
*I *67:CLK I *D gf180mcu_fd_sc_mcu7t5v0__dffq_1
*CAP
1 clb_clk_in 0.000675972
2 *67:CLK 0.000675972
3 *67:CLK clb_out 0.000686139
4 *67:CLK *68:I 0.000172685
5 *67:CLK *80:I 0
6 *67:CLK *21:6 6.16184e-05
*RES
1 clb_clk_in *67:CLK 14.715 
*END

*D_NET *4 0.00130815
*CONN
*P clb_in[0] I
*I *68:I I *D gf180mcu_fd_sc_mcu7t5v0__clkbuf_1
*CAP
1 clb_in[0] 0.000292874
2 *68:I 0.000292874
3 *68:I *70:I 0.000549717
4 *67:CLK *68:I 0.000172685
*RES
1 clb_in[0] *68:I 12.195 
*END

*D_NET *5 0.00560721
*CONN
*P clb_in[1] I
*I *72:I I *D gf180mcu_fd_sc_mcu7t5v0__clkbuf_1
*CAP
1 clb_in[1] 0.00142739
2 *72:I 0.00142739
3 *72:I *63:I1 0.000572113
4 *72:I *63:I3 0
5 *72:I *64:I1 0.000127352
6 *72:I *64:I3 3.73774e-06
7 *72:I *64:S1 7.60274e-05
8 *72:I *65:I0 0.000609335
9 *72:I *65:S 0.000378322
10 *72:I *66:I0 1.65154e-05
11 *72:I *66:S 0
12 *72:I *73:I 0.000159262
13 *72:I *78:I 0.000129935
14 *72:I *26:12 0.000679827
*RES
1 clb_in[1] *72:I 31.275 
*END

*D_NET *6 0.00555409
*CONN
*P clb_in[2] I
*I *73:I I *D gf180mcu_fd_sc_mcu7t5v0__clkbuf_1
*CAP
1 clb_in[2] 0.00124414
2 *73:I 0.00124414
3 *73:I *63:I0 9.84908e-05
4 *73:I *63:I3 0.00108937
5 *73:I *64:I0 9.85004e-05
6 *73:I *64:I1 0.000365454
7 *73:I *65:S 2.11017e-05
8 *73:I *71:I 0.00053736
9 *73:I *75:I 1.80179e-05
10 *73:I *78:I 0.000652889
11 *73:I *79:I 2.53708e-05
12 *72:I *73:I 0.000159262
*RES
1 clb_in[2] *73:I 21.645 
*END

*D_NET *7 0.000819812
*CONN
*P clb_mode_seq I
*I *74:I I *D gf180mcu_fd_sc_mcu7t5v0__clkbuf_1
*CAP
1 clb_mode_seq 0.000371221
2 *74:I 0.000371221
3 *74:I *63:I1 2.30981e-05
4 *74:I *69:I 5.42716e-05
*RES
1 clb_mode_seq *74:I 11.835 
*END

*D_NET *8 0.00178476
*CONN
*P clb_out O
*I *80:Z O *D gf180mcu_fd_sc_mcu7t5v0__clkbuf_3
*CAP
1 clb_out 0.000376744
2 *80:Z 0.000376744
3 clb_out *66:I1 0
4 clb_out *70:I 6.28059e-05
5 clb_out *77:I 5.8918e-05
6 clb_out *80:I 0
7 clb_out *21:6 0.000223407
8 *67:CLK clb_out 0.000686139
*RES
1 *80:Z clb_out 13.095 
*END

*D_NET *9 0.000583276
*CONN
*P lut_data_in[0] I
*I *75:I I *D gf180mcu_fd_sc_mcu7t5v0__clkbuf_1
*CAP
1 lut_data_in[0] 0.000250832
2 *75:I 0.000250832
3 *75:I *64:I0 4.6613e-06
4 *75:I *71:I 4.6613e-06
5 *75:I *79:I 5.42716e-05
6 *73:I *75:I 1.80179e-05
*RES
1 lut_data_in[0] *75:I 11.115 
*END

*D_NET *10 0.000760333
*CONN
*P lut_data_in[1] I
*I *76:I I *D gf180mcu_fd_sc_mcu7t5v0__clkbuf_1
*CAP
1 lut_data_in[1] 0.000290578
2 *76:I 0.000290578
3 *76:I *64:I1 8.06865e-05
4 *76:I *69:I 4.92452e-05
5 *76:I *79:I 4.92452e-05
*RES
1 lut_data_in[1] *76:I 11.475 
*END

*D_NET *11 0.00222608
*CONN
*P lut_data_in[2] I
*I *77:I I *D gf180mcu_fd_sc_mcu7t5v0__clkbuf_1
*CAP
1 lut_data_in[2] 0.000491309
2 *77:I 0.000491309
3 *77:I *63:I2 0.000206596
4 *77:I *64:I2 0.000180811
5 *77:I *64:S0 0.000506097
6 *77:I *78:I 4.89863e-05
7 *77:I *20:10 5.3289e-05
8 *77:I *21:6 0.000188768
9 clb_out *77:I 5.8918e-05
*RES
1 lut_data_in[2] *77:I 14.175 
*END

*D_NET *12 0.00372033
*CONN
*P lut_data_in[3] I
*I *78:I I *D gf180mcu_fd_sc_mcu7t5v0__clkbuf_1
*CAP
1 lut_data_in[3] 0.000765701
2 *78:I 0.000765701
3 *78:I *63:I2 7.12171e-05
4 *78:I *63:I3 8.89523e-05
5 *78:I *64:I3 1.68605e-05
6 *78:I *64:S1 0.000278756
7 *78:I *65:I0 0.000671644
8 *78:I *65:I1 5.09573e-05
9 *78:I *71:I 0.000178725
10 *72:I *78:I 0.000129935
11 *73:I *78:I 0.000652889
12 *77:I *78:I 4.89863e-05
*RES
1 lut_data_in[3] *78:I 26.145 
*END

*D_NET *13 0.000665477
*CONN
*P lut_data_in[4] I
*I *79:I I *D gf180mcu_fd_sc_mcu7t5v0__clkbuf_1
*CAP
1 lut_data_in[4] 0.000256746
2 *79:I 0.000256746
3 *79:I *63:I0 2.30981e-05
4 *73:I *79:I 2.53708e-05
5 *75:I *79:I 5.42716e-05
6 *76:I *79:I 4.92452e-05
*RES
1 lut_data_in[4] *79:I 11.295 
*END

*D_NET *14 0.000751321
*CONN
*P lut_data_in[5] I
*I *69:I I *D gf180mcu_fd_sc_mcu7t5v0__clkbuf_1
*CAP
1 lut_data_in[5] 0.000318534
2 *69:I 0.000318534
3 *69:I *63:I1 1.07374e-05
4 *74:I *69:I 5.42716e-05
5 *76:I *69:I 4.92452e-05
*RES
1 lut_data_in[5] *69:I 11.475 
*END

*D_NET *15 0.00215921
*CONN
*P lut_data_in[6] I
*I *70:I I *D gf180mcu_fd_sc_mcu7t5v0__clkbuf_1
*CAP
1 lut_data_in[6] 0.00054683
2 *70:I 0.00054683
3 *70:I *63:I1 9.85004e-05
4 *70:I *63:I2 0.000183662
5 *70:I *66:S 0.000143853
6 *70:I *26:12 2.70125e-05
7 clb_out *70:I 6.28059e-05
8 *68:I *70:I 0.000549717
*RES
1 lut_data_in[6] *70:I 14.715 
*END

*D_NET *16 0.00349219
*CONN
*P lut_data_in[7] I
*I *71:I I *D gf180mcu_fd_sc_mcu7t5v0__clkbuf_1
*CAP
1 lut_data_in[7] 0.00106647
2 *71:I 0.00106647
3 *71:I *63:I3 0
4 *71:I *64:I0 0.000213098
5 *71:I *64:I3 0.000425407
6 *73:I *71:I 0.00053736
7 *75:I *71:I 4.6613e-06
8 *78:I *71:I 0.000178725
*RES
1 lut_data_in[7] *71:I 18.135 
*END

*D_NET *17 0.000828413
*CONN
*I *65:I1 I *D gf180mcu_fd_sc_mcu7t5v0__mux2_2
*I *63:Z O *D gf180mcu_fd_sc_mcu7t5v0__mux4_1
*CAP
1 *65:I1 0.000308686
2 *63:Z 0.000308686
3 *65:I1 *64:S1 7.12165e-05
4 *65:I1 *66:I1 0
5 *65:I1 *20:10 8.88682e-05
6 *78:I *65:I1 5.09573e-05
*RES
1 *63:Z *65:I1 11.34 
*END

*D_NET *18 0.00208642
*CONN
*I *65:I0 I *D gf180mcu_fd_sc_mcu7t5v0__mux2_2
*I *64:Z O *D gf180mcu_fd_sc_mcu7t5v0__mux4_1
*CAP
1 *65:I0 0.000148679
2 *64:Z 0.000148679
3 *65:I0 *64:I3 0.000508083
4 *72:I *65:I0 0.000609335
5 *78:I *65:I0 0.000671644
*RES
1 *64:Z *65:I0 21.06 
*END

*D_NET *19 0.000907627
*CONN
*I *66:I0 I *D gf180mcu_fd_sc_mcu7t5v0__mux2_2
*I *67:Q O *D gf180mcu_fd_sc_mcu7t5v0__dffq_1
*CAP
1 *66:I0 0.00034473
2 *67:Q 0.00034473
3 *66:I0 *63:I1 0.000201651
4 *66:I0 *65:S 0
5 *72:I *66:I0 1.65154e-05
*RES
1 *67:Q *66:I0 11.7 
*END

*D_NET *20 0.00217728
*CONN
*I *66:I1 I *D gf180mcu_fd_sc_mcu7t5v0__mux2_2
*I *67:D I *D gf180mcu_fd_sc_mcu7t5v0__dffq_1
*I *65:Z O *D gf180mcu_fd_sc_mcu7t5v0__mux2_2
*CAP
1 *66:I1 0.000262646
2 *67:D 0
3 *65:Z 0.000480083
4 *20:10 0.000742729
5 *66:I1 *63:I2 0.000256675
6 *66:I1 *21:6 0
7 *20:10 *63:I2 0
8 *20:10 *63:I3 4.83522e-05
9 *20:10 *64:S0 0.000135422
10 *20:10 *64:S1 0
11 *20:10 *21:6 0.000109215
12 *20:10 *26:12 0
13 clb_out *66:I1 0
14 *65:I1 *66:I1 0
15 *65:I1 *20:10 8.88682e-05
16 *77:I *20:10 5.3289e-05
*RES
1 *65:Z *20:10 8.55 
2 *20:10 *67:D 4.5 
3 *20:10 *66:I1 7.02 
*END

*D_NET *21 0.00178565
*CONN
*I *63:S0 I *D gf180mcu_fd_sc_mcu7t5v0__mux4_1
*I *64:S0 I *D gf180mcu_fd_sc_mcu7t5v0__mux4_1
*I *68:Z O *D gf180mcu_fd_sc_mcu7t5v0__clkbuf_1
*CAP
1 *63:S0 0
2 *64:S0 6.52706e-05
3 *68:Z 0.000215293
4 *21:6 0.000280564
5 clb_out *21:6 0.000223407
6 *66:I1 *21:6 0
7 *67:CLK *21:6 6.16184e-05
8 *77:I *64:S0 0.000506097
9 *77:I *21:6 0.000188768
10 *20:10 *64:S0 0.000135422
11 *20:10 *21:6 0.000109215
*RES
1 *68:Z *21:6 6.75 
2 *21:6 *64:S0 5.85 
3 *21:6 *63:S0 4.5 
*END

*D_NET *22 0.00310229
*CONN
*I *63:I1 I *D gf180mcu_fd_sc_mcu7t5v0__mux4_1
*I *69:Z O *D gf180mcu_fd_sc_mcu7t5v0__clkbuf_1
*CAP
1 *63:I1 0.000831566
2 *69:Z 0.000831566
3 *63:I1 *63:I2 5.0649e-05
4 *63:I1 *64:I1 4.15457e-05
5 *63:I1 *65:S 0
6 *63:I1 *66:S 0.000242502
7 *63:I1 *26:12 0.000198364
8 *66:I0 *63:I1 0.000201651
9 *69:I *63:I1 1.07374e-05
10 *70:I *63:I1 9.85004e-05
11 *72:I *63:I1 0.000572113
12 *74:I *63:I1 2.30981e-05
*RES
1 *69:Z *63:I1 25.38 
*END

*D_NET *23 0.00309482
*CONN
*I *63:I2 I *D gf180mcu_fd_sc_mcu7t5v0__mux4_1
*I *70:Z O *D gf180mcu_fd_sc_mcu7t5v0__clkbuf_1
*CAP
1 *63:I2 0.000543808
2 *70:Z 0.000543808
3 *63:I2 *63:I3 0.000466036
4 *63:I2 *66:S 1.51153e-05
5 *63:I2 *80:I 5.3819e-05
6 *63:I2 *26:12 0.000703432
7 *63:I1 *63:I2 5.0649e-05
8 *66:I1 *63:I2 0.000256675
9 *70:I *63:I2 0.000183662
10 *77:I *63:I2 0.000206596
11 *78:I *63:I2 7.12171e-05
12 *20:10 *63:I2 0
*RES
1 *70:Z *63:I2 24.57 
*END

*D_NET *24 0.00463002
*CONN
*I *63:I3 I *D gf180mcu_fd_sc_mcu7t5v0__mux4_1
*I *71:Z O *D gf180mcu_fd_sc_mcu7t5v0__clkbuf_1
*CAP
1 *63:I3 0.000767593
2 *71:Z 0.000767593
3 *63:I3 *63:I0 0.000409492
4 *63:I3 *64:I1 0.000938585
5 *63:I3 *64:I3 0
6 *63:I3 *64:S1 2.65444e-06
7 *63:I3 *65:S 5.13982e-05
8 *63:I3 *26:12 0
9 *63:I2 *63:I3 0.000466036
10 *71:I *63:I3 0
11 *72:I *63:I3 0
12 *73:I *63:I3 0.00108937
13 *78:I *63:I3 8.89523e-05
14 *20:10 *63:I3 4.83522e-05
*RES
1 *71:Z *63:I3 26.01 
*END

*D_NET *25 0.000321109
*CONN
*I *80:I I *D gf180mcu_fd_sc_mcu7t5v0__clkbuf_3
*I *66:Z O *D gf180mcu_fd_sc_mcu7t5v0__mux2_2
*CAP
1 *80:I 0.000133645
2 *66:Z 0.000133645
3 clb_out *80:I 0
4 *63:I2 *80:I 5.3819e-05
5 *67:CLK *80:I 0
*RES
1 *66:Z *80:I 9.99 
*END

*D_NET *26 0.00278238
*CONN
*I *63:S1 I *D gf180mcu_fd_sc_mcu7t5v0__mux4_1
*I *64:S1 I *D gf180mcu_fd_sc_mcu7t5v0__mux4_1
*I *72:Z O *D gf180mcu_fd_sc_mcu7t5v0__clkbuf_1
*CAP
1 *63:S1 0
2 *64:S1 0.000148859
3 *72:Z 0.000223684
4 *26:12 0.000372543
5 *63:I1 *26:12 0.000198364
6 *63:I2 *26:12 0.000703432
7 *63:I3 *64:S1 2.65444e-06
8 *63:I3 *26:12 0
9 *65:I1 *64:S1 7.12165e-05
10 *70:I *26:12 2.70125e-05
11 *72:I *64:S1 7.60274e-05
12 *72:I *26:12 0.000679827
13 *78:I *64:S1 0.000278756
14 *20:10 *64:S1 0
15 *20:10 *26:12 0
*RES
1 *72:Z *26:12 17.28 
2 *26:12 *64:S1 6.12 
3 *26:12 *63:S1 4.5 
*END

*D_NET *27 0.00242922
*CONN
*I *65:S I *D gf180mcu_fd_sc_mcu7t5v0__mux2_2
*I *73:Z O *D gf180mcu_fd_sc_mcu7t5v0__clkbuf_1
*CAP
1 *65:S 0.000797055
2 *73:Z 0.000797055
3 *65:S *64:I1 0.000169524
4 *65:S *64:I3 0.000214768
5 *63:I1 *65:S 0
6 *63:I3 *65:S 5.13982e-05
7 *66:I0 *65:S 0
8 *72:I *65:S 0.000378322
9 *73:I *65:S 2.11017e-05
*RES
1 *73:Z *65:S 15.39 
*END

*D_NET *28 0.0017593
*CONN
*I *66:S I *D gf180mcu_fd_sc_mcu7t5v0__mux2_2
*I *74:Z O *D gf180mcu_fd_sc_mcu7t5v0__clkbuf_1
*CAP
1 *66:S 0.000678916
2 *74:Z 0.000678916
3 *63:I1 *66:S 0.000242502
4 *63:I2 *66:S 1.51153e-05
5 *70:I *66:S 0.000143853
6 *72:I *66:S 0
*RES
1 *74:Z *66:S 22.86 
*END

*D_NET *29 0.000794895
*CONN
*I *64:I0 I *D gf180mcu_fd_sc_mcu7t5v0__mux4_1
*I *75:Z O *D gf180mcu_fd_sc_mcu7t5v0__clkbuf_1
*CAP
1 *64:I0 0.000239318
2 *75:Z 0.000239318
3 *64:I0 *63:I0 0
4 *71:I *64:I0 0.000213098
5 *73:I *64:I0 9.85004e-05
6 *75:I *64:I0 4.6613e-06
*RES
1 *75:Z *64:I0 19.8 
*END

*D_NET *30 0.00297571
*CONN
*I *64:I1 I *D gf180mcu_fd_sc_mcu7t5v0__mux4_1
*I *76:Z O *D gf180mcu_fd_sc_mcu7t5v0__clkbuf_1
*CAP
1 *64:I1 0.000602585
2 *76:Z 0.000602585
3 *64:I1 *63:I0 4.73908e-05
4 *63:I1 *64:I1 4.15457e-05
5 *63:I3 *64:I1 0.000938585
6 *65:S *64:I1 0.000169524
7 *72:I *64:I1 0.000127352
8 *73:I *64:I1 0.000365454
9 *76:I *64:I1 8.06865e-05
*RES
1 *76:Z *64:I1 23.85 
*END

*D_NET *31 0.000516741
*CONN
*I *64:I2 I *D gf180mcu_fd_sc_mcu7t5v0__mux4_1
*I *77:Z O *D gf180mcu_fd_sc_mcu7t5v0__clkbuf_1
*CAP
1 *64:I2 0.000167965
2 *77:Z 0.000167965
3 *77:I *64:I2 0.000180811
*RES
1 *77:Z *64:I2 10.35 
*END

*D_NET *32 0.00198995
*CONN
*I *64:I3 I *D gf180mcu_fd_sc_mcu7t5v0__mux4_1
*I *78:Z O *D gf180mcu_fd_sc_mcu7t5v0__clkbuf_1
*CAP
1 *64:I3 0.000410548
2 *78:Z 0.000410548
3 *63:I3 *64:I3 0
4 *65:I0 *64:I3 0.000508083
5 *65:S *64:I3 0.000214768
6 *71:I *64:I3 0.000425407
7 *72:I *64:I3 3.73774e-06
8 *78:I *64:I3 1.68605e-05
*RES
1 *78:Z *64:I3 22.14 
*END

*D_NET *33 0.000992322
*CONN
*I *63:I0 I *D gf180mcu_fd_sc_mcu7t5v0__mux4_1
*I *79:Z O *D gf180mcu_fd_sc_mcu7t5v0__clkbuf_1
*CAP
1 *63:I0 0.000206925
2 *79:Z 0.000206925
3 *63:I3 *63:I0 0.000409492
4 *64:I0 *63:I0 0
5 *64:I1 *63:I0 4.73908e-05
6 *73:I *63:I0 9.84908e-05
7 *79:I *63:I0 2.30981e-05
*RES
1 *79:Z *63:I0 19.8 
*END
